Test: battleship-15-29-sat.cnf
Options: vanilla
WARNING: for repeatability, setting FPU to use double precision
============================[ Problem Statistics ]=============================
|                                                                             |
|  Number of symmetries:           22                                         |
|  Number of invertingSyms:         0                                         |
|  Number of variables:           435                                         |
|  Number of clauses:            3270                                         |
|  Parse time:                   0.00 s                                       |
|                                                                             |
============================[ Search Statistics ]==============================
| Conflicts |          ORIGINAL         |          LEARNT          | Progress |
|           |    Vars  Clauses Literals |    Limit  Clauses Lit/Cl |          |
===============================================================================
|       100 |     435     3270    12615 |     1199      120    232 |  0.001 % |
|       250 |     435     3270    12615 |     1318      297    190 |  0.001 % |
|       475 |     435     3270    12615 |     1450      571    165 |  0.001 % |
|       812 |     435     3270    12615 |     1595     1016    150 |  0.001 % |
|      1318 |     435     3270    12615 |     1755      825    136 |  0.001 % |
|      2077 |     435     3270    12615 |     1931     1764    137 |  0.001 % |
|      3216 |     435     3270    12615 |     2124     2139    152 |  0.001 % |
|      4924 |     435     3270    12615 |     2336     2219    169 |  0.001 % |
|      7486 |     435     3270    12615 |     2570     1676    169 |  0.001 % |
|     11330 |     435     3270    12615 |     2827     2621    162 |  0.001 % |
|     17096 |     435     3270    12615 |     3109     2441    148 |  0.001 % |
|     25745 |     435     3270    12615 |     3420     1952    151 |  0.001 % |
|     38719 |     435     3270    12615 |     3762     2834    185 |  0.001 % |
|     58180 |     435     3270    12615 |     4139     2664    192 |  0.001 % |
|     87372 |     435     3270    12615 |     4553     4192    186 |  0.001 % |
|    131161 |     435     3270    12615 |     5008     3867    210 |  0.001 % |
|    196845 |     435     3270    12615 |     5509     3216    184 |  0.001 % |
|    295371 |     435     3270    12615 |     6060     3027    165 |  0.001 % |
|    443160 |     435     3270    12615 |     6666     6206    192 |  0.001 % |
|    664843 |     435     3270    12615 |     7332     5940    183 |  0.001 % |
|    997368 |     435     3270    12615 |     8066     4067    197 |  0.001 % |
|   1496156 |     435     3270    12615 |     8872     6944    196 |  0.001 % |
|   2244338 |     435     3270    12615 |     9760     8320    188 |  0.001 % |
|   3366612 |     435     3270    12615 |    10736     5786    189 |  0.001 % |
===============================================================================
restarts              : 8190
conflicts             : 4899931        (12266 /sec)
symconflicts          : 331939         (831 /sec)
decisions             : 10058234       (0.00 % random) (25179 /sec)
propagations          : 115729801      (289706 /sec)
sympropagations       : 1311642        (3283 /sec)
conflict literals     : 944974529      (5.24 % deleted)
literals     : 944974529      (5.24 % deleted)

HEURISTIC USAGES
random                : 0           
activity w/ lookahead : 0           
activity no lookahead : 0           
original sp           : 10058233    
sym count             : 0           

Memory used           : 46.00 MB
CPU time              : 399.473 s

SATISFIABLE
